1594527
56,74,71,40,37,25,36,8,65,76,89,108,23,78,66,3,43,19,62,2,82,24,42,84,60,94,31,5,29,102,55,73,91,47,79,16,52,99,20,12,92,95,18,72,75,33,51,15,106,93,80,1,50,83,58,45,28,44,81,0,97,100,34,4,10,88,90,49,17,6,87,64,11,35,27,7,39,67,54,77,32,107,105,59,41,61,86,104,98,70,46,96,101,53,57,103,21,14,22,63,9,48,30,38,13,69,68,26,85,56